Cu Ge Se Cu Ge Se S  Cu Ge Se S  Cu Ge Se S  Se Cu Ge S  Se Cu Ge Se S  Cu Ge Se S  Se Cu Ge Se S  Se
 1.0000000000000000
    11.0600000000000005    0.0000000000000000    0.0000000000000000
     0.0000000000000000   11.0600000000000005    0.0000000000000000
     0.0000000000000000    0.0000000000000000   22.1200000000000010
 Cu  Ge  Se  Cu  Ge  Se  S   Cu  Ge  Se  S   Cu  Ge  Se  S   Se  Cu  Ge  S   Se  Cu  Ge  Se  S   Cu  Ge  Se  S   Se  Cu  Ge  Se  S   Se 
   2   1   3   2   1   1   2   2   1   1   2   2   1   1   1   1   2   1   2   1   2   1   1   2   2   1   1   1   1   2   1   1   1   1
Cartesian
  0.0000000000000000  0.0000000000000000  0.0000000000000000
  0.5000000000000000  0.5000000000000000  0.0000000000000000
  0.2500000000000000  0.2500000000000000  0.5000000000000000
  0.7500000000000000  0.2500000000000000  0.5000000000000000
  0.2500000000000000  0.7500000000000000  0.5000000000000000
  0.7500000000000000  0.7500000000000000  0.5000000000000000
  0.0000000000000000  0.0000000000000000 11.0599999999999987
  0.5000000000000000  0.5000000000000000 11.0599999999999987
  0.2500000000000000  0.2500000000000000 11.5600000000000023
  0.7500000000000000  0.2500000000000000 11.5600000000000023
  0.2500000000000000  0.7500000000000000 11.5600000000000023
  0.7500000000000000  0.7500000000000000 11.5600000000000023
  0.0000000000000000  5.5299999999999994  0.0000000000000000
  0.5000000000000000  6.0300000000000002  0.0000000000000000
  0.2500000000000000  5.7800000000000011  0.5000000000000000
  0.7500000000000000  5.7800000000000011  0.5000000000000000
  0.2500000000000000  6.2800000000000002  0.5000000000000000
  0.7500000000000000  6.2800000000000002  0.5000000000000000
  0.0000000000000000  5.5299999999999994 11.0599999999999987
  0.5000000000000000  6.0300000000000002 11.0599999999999987
  0.2500000000000000  5.7800000000000011 11.5600000000000023
  0.7500000000000000  5.7800000000000011 11.5600000000000023
  0.2500000000000000  6.2800000000000002 11.5600000000000023
  0.7500000000000000  6.2800000000000002 11.5600000000000023
  5.5299999999999994  0.0000000000000000  0.0000000000000000
  6.0300000000000002  0.5000000000000000  0.0000000000000000
  5.7800000000000011  0.2500000000000000  0.5000000000000000
  6.2800000000000002  0.2500000000000000  0.5000000000000000
  5.7800000000000011  0.7500000000000000  0.5000000000000000
  6.2800000000000002  0.7500000000000000  0.5000000000000000
  5.5299999999999994  0.0000000000000000 11.0599999999999987
  6.0300000000000002  0.5000000000000000 11.0599999999999987
  5.7800000000000011  0.2500000000000000 11.5600000000000023
  6.2800000000000002  0.2500000000000000 11.5600000000000023
  5.7800000000000011  0.7500000000000000 11.5600000000000023
  6.2800000000000002  0.7500000000000000 11.5600000000000023
  5.5299999999999994  5.5299999999999994  0.0000000000000000
  6.0300000000000002  6.0300000000000002  0.0000000000000000
  5.7800000000000011  5.7800000000000011  0.5000000000000000
  6.2800000000000002  5.7800000000000011  0.5000000000000000
  5.7800000000000011  6.2800000000000002  0.5000000000000000
  6.2800000000000002  6.2800000000000002  0.5000000000000000
  5.5299999999999994  5.5299999999999994 11.0599999999999987
  6.0300000000000002  6.0300000000000002 11.0599999999999987
  5.7800000000000011  5.7800000000000011 11.5600000000000023
  6.2800000000000002  5.7800000000000011 11.5600000000000023
  5.7800000000000011  6.2800000000000002 11.5600000000000023
  6.2800000000000002  6.2800000000000002 11.5600000000000023
